
  32    1
  10

   0   0  10 2 3 4 5 8 9 10 11 14 22 
  10   3   4 29 16 7 6 
   9   7   4 26 18 12 6 
   1  10   4 26 16 13 6 
   2   8   6 30 27 26 17 16 15 
   7  10   5 28 27 25 19 15 
   3  10   4 28 25 20 18 
   9   9   4 27 26 25 15 
   4  10   3 31 18 16 
   1   9   3 21 19 15 
   6   6   5 28 26 25 24 23 
   9   7   4 30 29 27 23 
   9   8   2 18 15 
   4   7   2 27 15 
   6  10   2 24 23 
   1   6   2 25 24 
   1   7   2 29 24 
   5   8   1 23 
   6  10   1 24 
   4   9   1 26 
   3   7   1 25 
   5   9   1 23 
   9   7   1 32
   3   6   1 32
   2   6   1 32
   8  10   1 32
   6   9   1 32
   5  10   1 32
   5  10   1 32
   7   2   1 32
   3  10   1 32
   0   0   0 
